12° run output:
{
    "Function": "euclidA500.tsp",
    "Problem dimension": [
        193,
        424,
        93,
        145,
        215,
        220,
        5,
        15,
        80,
        67,
        173,
        78,
        178,
        158,
        378,
        117,
        35,
        260,
        94,
        357,
        230,
        182,
        355,
        202,
        497,
        473,
        132,
        60,
        179,
        204,
        431,
        332,
        250,
        421,
        372,
        104,
        385,
        155,
        114,
        439,
        483,
        459,
        300,
        458,
        186,
        189,
        90,
        313,
        113,
        200,
        22,
        430,
        84,
        365,
        216,
        485,
        307,
        21,
        395,
        1,
        56,
        488,
        329,
        408,
        238,
        433,
        418,
        184,
        314,
        43,
        135,
        423,
        197,
        194,
        209,
        177,
        257,
        258,
        96,
        226,
        92,
        294,
        327,
        75,
        106,
        150,
        229,
        298,
        286,
        240,
        210,
        157,
        10,
        102,
        398,
        246,
        336,
        18,
        39,
        180,
        342,
        496,
        196,
        406,
        261,
        451,
        460,
        468,
        160,
        248,
        268,
        208,
        291,
        334,
        168,
        83,
        236,
        183,
        266,
        301,
        73,
        36,
        171,
        239,
        205,
        51,
        447,
        435,
        77,
        42,
        364,
        198,
        259,
        440,
        7,
        69,
        446,
        136,
        91,
        139,
        187,
        228,
        344,
        455,
        409,
        375,
        140,
        498,
        152,
        151,
        466,
        399,
        362,
        335,
        116,
        181,
        68,
        167,
        482,
        134,
        350,
        467,
        306,
        470,
        393,
        376,
        453,
        218,
        95,
        143,
        417,
        62,
        98,
        476,
        234,
        127,
        192,
        241,
        74,
        16,
        486,
        131,
        296,
        441,
        315,
        237,
        50,
        338,
        24,
        339,
        493,
        133,
        97,
        333,
        320,
        273,
        23,
        420,
        490,
        31,
        107,
        317,
        212,
        256,
        274,
        403,
        252,
        9,
        326,
        475,
        142,
        318,
        480,
        148,
        448,
        304,
        4,
        81,
        223,
        87,
        366,
        412,
        13,
        425,
        401,
        436,
        109,
        103,
        79,
        3,
        147,
        312,
        64,
        245,
        2,
        354,
        254,
        190,
        214,
        265,
        495,
        211,
        6,
        129,
        288,
        122,
        415,
        251,
        233,
        341,
        295,
        70,
        368,
        156,
        396,
        465,
        449,
        281,
        305,
        419,
        387,
        224,
        432,
        130,
        413,
        40,
        141,
        174,
        29,
        30,
        213,
        227,
        477,
        277,
        269,
        287,
        14,
        221,
        319,
        346,
        494,
        32,
        474,
        27,
        267,
        219,
        391,
        49,
        170,
        243,
        377,
        59,
        53,
        100,
        164,
        352,
        351,
        124,
        492,
        316,
        125,
        358,
        26,
        462,
        123,
        371,
        126,
        25,
        297,
        72,
        422,
        33,
        52,
        325,
        359,
        361,
        58,
        367,
        138,
        407,
        275,
        34,
        392,
        323,
        121,
        410,
        41,
        255,
        445,
        284,
        322,
        292,
        244,
        402,
        188,
        128,
        456,
        311,
        499,
        232,
        89,
        101,
        175,
        55,
        161,
        452,
        12,
        330,
        405,
        373,
        65,
        289,
        46,
        166,
        331,
        285,
        57,
        253,
        249,
        222,
        411,
        99,
        48,
        137,
        369,
        414,
        37,
        489,
        262,
        176,
        434,
        374,
        356,
        278,
        38,
        153,
        416,
        370,
        271,
        290,
        66,
        469,
        487,
        169,
        264,
        397,
        302,
        442,
        283,
        44,
        479,
        363,
        380,
        388,
        427,
        54,
        206,
        360,
        20,
        343,
        165,
        348,
        247,
        172,
        105,
        108,
        389,
        484,
        444,
        400,
        185,
        383,
        390,
        454,
        279,
        337,
        242,
        270,
        120,
        17,
        404,
        309,
        86,
        144,
        8,
        437,
        345,
        282,
        207,
        231,
        464,
        321,
        263,
        394,
        272,
        428,
        76,
        115,
        381,
        303,
        347,
        308,
        225,
        463,
        438,
        450,
        146,
        28,
        71,
        112,
        328,
        201,
        118,
        61,
        111,
        478,
        119,
        310,
        88,
        429,
        110,
        471,
        45,
        382,
        349,
        235,
        472,
        457,
        82,
        384,
        162,
        11,
        276,
        340,
        159,
        47,
        191,
        280,
        481,
        195,
        386,
        426,
        293,
        149,
        443,
        379,
        199,
        299,
        353,
        461,
        19,
        491,
        85,
        154,
        63,
        324,
        217,
        0,
        203,
        163
    ],
    "Global Optimum": 0,
    "Algorithm": "Genetic algorithm",
    "Parameters": {
        "population": 30,
        "offspring": 30,
        "mutation probability": 0.002,
        "crossover probability": 0.9
    },
    "Fitness": 562801,
    "Solution": [
        193,
        424,
        93,
        145,
        215,
        220,
        5,
        15,
        80,
        67,
        173,
        78,
        178,
        158,
        378,
        117,
        35,
        260,
        94,
        357,
        230,
        182,
        355,
        202,
        497,
        473,
        132,
        60,
        179,
        204,
        431,
        332,
        250,
        421,
        372,
        104,
        385,
        155,
        114,
        439,
        483,
        459,
        300,
        458,
        186,
        189,
        90,
        313,
        113,
        200,
        22,
        430,
        84,
        365,
        216,
        485,
        307,
        21,
        395,
        1,
        56,
        488,
        329,
        408,
        238,
        433,
        418,
        184,
        314,
        43,
        135,
        423,
        197,
        194,
        209,
        177,
        257,
        258,
        96,
        226,
        92,
        294,
        327,
        75,
        106,
        150,
        229,
        298,
        286,
        240,
        210,
        157,
        10,
        102,
        398,
        246,
        336,
        18,
        39,
        180,
        342,
        496,
        196,
        406,
        261,
        451,
        460,
        468,
        160,
        248,
        268,
        208,
        291,
        334,
        168,
        83,
        236,
        183,
        266,
        301,
        73,
        36,
        171,
        239,
        205,
        51,
        447,
        435,
        77,
        42,
        364,
        198,
        259,
        440,
        7,
        69,
        446,
        136,
        91,
        139,
        187,
        228,
        344,
        455,
        409,
        375,
        140,
        498,
        152,
        151,
        466,
        399,
        362,
        335,
        116,
        181,
        68,
        167,
        482,
        134,
        350,
        467,
        306,
        470,
        393,
        376,
        453,
        218,
        95,
        143,
        417,
        62,
        98,
        476,
        234,
        127,
        192,
        241,
        74,
        16,
        486,
        131,
        296,
        441,
        315,
        237,
        50,
        338,
        24,
        339,
        493,
        133,
        97,
        333,
        320,
        273,
        23,
        420,
        490,
        31,
        107,
        317,
        212,
        256,
        274,
        403,
        252,
        9,
        326,
        475,
        142,
        318,
        480,
        148,
        448,
        304,
        4,
        81,
        223,
        87,
        366,
        412,
        13,
        425,
        401,
        436,
        109,
        103,
        79,
        3,
        147,
        312,
        64,
        245,
        2,
        354,
        254,
        190,
        214,
        265,
        495,
        211,
        6,
        129,
        288,
        122,
        415,
        251,
        233,
        341,
        295,
        70,
        368,
        156,
        396,
        465,
        449,
        281,
        305,
        419,
        387,
        224,
        432,
        130,
        413,
        40,
        141,
        174,
        29,
        30,
        213,
        227,
        477,
        277,
        269,
        287,
        14,
        221,
        319,
        346,
        494,
        32,
        474,
        27,
        267,
        219,
        391,
        49,
        170,
        243,
        377,
        59,
        53,
        100,
        164,
        352,
        351,
        124,
        492,
        316,
        125,
        358,
        26,
        462,
        123,
        371,
        126,
        25,
        297,
        72,
        422,
        33,
        52,
        325,
        359,
        361,
        58,
        367,
        138,
        407,
        275,
        34,
        392,
        323,
        121,
        410,
        41,
        255,
        445,
        284,
        322,
        292,
        244,
        402,
        188,
        128,
        456,
        311,
        499,
        232,
        89,
        101,
        175,
        55,
        161,
        452,
        12,
        330,
        405,
        373,
        65,
        289,
        46,
        166,
        331,
        285,
        57,
        253,
        249,
        222,
        411,
        99,
        48,
        137,
        369,
        414,
        37,
        489,
        262,
        176,
        434,
        374,
        356,
        278,
        38,
        153,
        416,
        370,
        271,
        290,
        66,
        469,
        487,
        169,
        264,
        397,
        302,
        442,
        283,
        44,
        479,
        363,
        380,
        388,
        427,
        54,
        206,
        360,
        20,
        343,
        165,
        348,
        247,
        172,
        105,
        108,
        389,
        484,
        444,
        400,
        185,
        383,
        390,
        454,
        279,
        337,
        242,
        270,
        120,
        17,
        404,
        309,
        86,
        144,
        8,
        437,
        345,
        282,
        207,
        231,
        464,
        321,
        263,
        394,
        272,
        428,
        76,
        115,
        381,
        303,
        347,
        308,
        225,
        463,
        438,
        450,
        146,
        28,
        71,
        112,
        328,
        201,
        118,
        61,
        111,
        478,
        119,
        310,
        88,
        429,
        110,
        471,
        45,
        382,
        349,
        235,
        472,
        457,
        82,
        384,
        162,
        11,
        276,
        340,
        159,
        47,
        191,
        280,
        481,
        195,
        386,
        426,
        293,
        149,
        443,
        379,
        199,
        299,
        353,
        461,
        19,
        491,
        85,
        154,
        63,
        324,
        217,
        0,
        203,
        163
    ],
    "Nb of functions evaluations": 400020,
    "Computational time in seconds": 1796.8027701377869,
    "Stopping criterion in evaluations": 400000
}